NAME: ETSP
COMMENT: Generated by write_TSPLIB (R package TSP)
TYPE: TSP
DIMENSION: 1000
EDGE_WEIGHT_TYPE: EUC_2D
NODE_COORD_SECTION
1 4.810000e+00 1.898900e+01
2 4.810000e+00 3.696600e+01
3 4.810000e+00 7.292100e+01
4 4.810000e+00 9.089900e+01
5 4.810000e+00 1.088760e+02
6 4.810000e+00 1.268540e+02
7 4.810000e+00 1.448310e+02
8 4.810000e+00 1.628090e+02
9 4.810000e+00 1.987640e+02
10 4.810000e+00 2.167410e+02
11 4.810000e+00 2.347190e+02
12 4.810000e+00 2.526960e+02
13 4.810000e+00 2.706740e+02
14 4.810000e+00 2.886510e+02
15 4.810000e+00 3.246060e+02
16 4.810000e+00 3.425840e+02
17 4.810000e+00 3.605610e+02
18 4.810000e+00 3.785390e+02
19 4.810000e+00 4.144940e+02
20 1.000000e+01 1.000000e+01
21 1.000000e+01 2.797700e+01
22 1.000000e+01 6.393200e+01
23 1.000000e+01 8.191000e+01
24 1.000000e+01 9.988700e+01
25 1.000000e+01 1.178650e+02
26 1.000000e+01 1.358420e+02
27 1.000000e+01 1.538200e+02
28 1.000000e+01 1.717970e+02
29 1.000000e+01 2.077520e+02
30 1.000000e+01 2.437070e+02
31 1.000000e+01 2.616850e+02
32 1.000000e+01 2.976400e+02
33 1.000000e+01 3.335950e+02
34 1.000000e+01 3.515720e+02
35 1.000000e+01 3.695500e+02
36 1.000000e+01 3.875270e+02
37 1.519000e+01 1.898900e+01
38 1.519000e+01 3.696600e+01
39 1.519000e+01 5.494400e+01
40 1.519000e+01 7.292100e+01
41 1.519000e+01 9.089900e+01
42 1.519000e+01 1.088760e+02
43 1.519000e+01 1.448310e+02
44 1.519000e+01 1.628090e+02
45 1.519000e+01 1.807860e+02
46 1.519000e+01 2.526960e+02
47 1.519000e+01 2.706740e+02
48 1.519000e+01 2.886510e+02
49 1.519000e+01 3.066290e+02
50 1.519000e+01 3.246060e+02
51 1.519000e+01 3.425840e+02
52 1.519000e+01 3.785390e+02
53 1.519000e+01 3.965160e+02
54 1.519000e+01 4.144940e+02
55 2.037900e+01 1.000000e+01
56 2.037900e+01 4.595500e+01
57 2.037900e+01 6.393200e+01
58 2.037900e+01 1.178650e+02
59 2.037900e+01 1.358420e+02
60 2.037900e+01 1.717970e+02
61 2.037900e+01 2.077520e+02
62 2.037900e+01 2.257300e+02
63 2.037900e+01 2.437070e+02
64 2.037900e+01 3.156170e+02
65 2.037900e+01 3.695500e+02
66 2.037900e+01 3.875270e+02
67 2.556900e+01 1.898900e+01
68 2.556900e+01 3.696600e+01
69 2.556900e+01 7.292100e+01
70 2.556900e+01 1.088760e+02
71 2.556900e+01 1.268540e+02
72 2.556900e+01 1.448310e+02
73 2.556900e+01 1.628090e+02
74 2.556900e+01 1.807860e+02
75 2.556900e+01 2.167410e+02
76 2.556900e+01 2.526960e+02
77 2.556900e+01 2.706740e+02
78 2.556900e+01 2.886510e+02
79 2.556900e+01 3.066290e+02
80 2.556900e+01 3.425840e+02
81 2.556900e+01 3.605610e+02
82 2.556900e+01 3.785390e+02
83 2.556900e+01 4.144940e+02
84 3.075900e+01 1.000000e+01
85 3.075900e+01 2.797700e+01
86 3.075900e+01 6.393200e+01
87 3.075900e+01 8.191000e+01
88 3.075900e+01 9.988700e+01
89 3.075900e+01 1.538200e+02
90 3.075900e+01 1.717970e+02
91 3.075900e+01 2.437070e+02
92 3.075900e+01 2.616850e+02
93 3.075900e+01 2.796620e+02
94 3.075900e+01 2.976400e+02
95 3.075900e+01 3.156170e+02
96 3.075900e+01 3.335950e+02
97 3.075900e+01 3.515720e+02
98 3.075900e+01 3.875270e+02
99 3.075900e+01 4.055050e+02
100 3.594800e+01 1.898900e+01
101 3.594800e+01 3.696600e+01
102 3.594800e+01 5.494400e+01
103 3.594800e+01 7.292100e+01
104 3.594800e+01 9.089900e+01
105 3.594800e+01 1.088760e+02
106 3.594800e+01 1.268540e+02
107 3.594800e+01 1.448310e+02
108 3.594800e+01 1.628090e+02
109 3.594800e+01 1.807860e+02
110 3.594800e+01 1.987640e+02
111 3.594800e+01 2.167410e+02
112 3.594800e+01 2.347190e+02
113 3.594800e+01 2.526960e+02
114 3.594800e+01 2.886510e+02
115 3.594800e+01 3.246060e+02
116 3.594800e+01 3.425840e+02
117 3.594800e+01 3.605610e+02
118 3.594800e+01 3.785390e+02
119 3.594800e+01 3.965160e+02
120 3.594800e+01 4.144940e+02
121 4.113800e+01 2.797700e+01
122 4.113800e+01 4.595500e+01
123 4.113800e+01 6.393200e+01
124 4.113800e+01 8.191000e+01
125 4.113800e+01 9.988700e+01
126 4.113800e+01 1.358420e+02
127 4.113800e+01 1.538200e+02
128 4.113800e+01 1.717970e+02
129 4.113800e+01 1.897750e+02
130 4.113800e+01 2.077520e+02
131 4.113800e+01 2.437070e+02
132 4.113800e+01 2.616850e+02
133 4.113800e+01 2.796620e+02
134 4.113800e+01 2.976400e+02
135 4.113800e+01 3.156170e+02
136 4.113800e+01 3.515720e+02
137 4.113800e+01 3.695500e+02
138 4.113800e+01 4.055050e+02
139 4.632800e+01 1.898900e+01
140 4.632800e+01 3.696600e+01
141 4.632800e+01 5.494400e+01
142 4.632800e+01 7.292100e+01
143 4.632800e+01 9.089900e+01
144 4.632800e+01 1.088760e+02
145 4.632800e+01 1.268540e+02
146 4.632800e+01 1.448310e+02
147 4.632800e+01 1.628090e+02
148 4.632800e+01 1.807860e+02
149 4.632800e+01 1.987640e+02
150 4.632800e+01 2.167410e+02
151 4.632800e+01 2.347190e+02
152 4.632800e+01 2.526960e+02
153 4.632800e+01 2.706740e+02
154 4.632800e+01 2.886510e+02
155 4.632800e+01 3.066290e+02
156 4.632800e+01 3.425840e+02
157 4.632800e+01 3.785390e+02
158 4.632800e+01 4.144940e+02
159 5.151700e+01 1.000000e+01
160 5.151700e+01 2.797700e+01
161 5.151700e+01 4.595500e+01
162 5.151700e+01 6.393200e+01
163 5.151700e+01 1.358420e+02
164 5.151700e+01 1.538200e+02
165 5.151700e+01 1.897750e+02
166 5.151700e+01 2.616850e+02
167 5.151700e+01 2.796620e+02
168 5.151700e+01 2.976400e+02
169 5.151700e+01 3.156170e+02
170 5.151700e+01 3.335950e+02
171 5.151700e+01 4.055050e+02
172 5.670700e+01 1.898900e+01
173 5.670700e+01 7.292100e+01
174 5.670700e+01 9.089900e+01
175 5.670700e+01 1.088760e+02
176 5.670700e+01 1.268540e+02
177 5.670700e+01 1.448310e+02
178 5.670700e+01 1.628090e+02
179 5.670700e+01 1.807860e+02
180 5.670700e+01 2.167410e+02
181 5.670700e+01 2.347190e+02
182 5.670700e+01 2.706740e+02
183 5.670700e+01 3.066290e+02
184 5.670700e+01 3.246060e+02
185 5.670700e+01 3.425840e+02
186 5.670700e+01 3.605610e+02
187 5.670700e+01 3.785390e+02
188 5.670700e+01 3.965160e+02
189 5.670700e+01 4.144940e+02
190 6.189700e+01 1.000000e+01
191 6.189700e+01 4.595500e+01
192 6.189700e+01 6.393200e+01
193 6.189700e+01 8.191000e+01
194 6.189700e+01 9.988700e+01
195 6.189700e+01 1.178650e+02
196 6.189700e+01 1.538200e+02
197 6.189700e+01 1.717970e+02
198 6.189700e+01 1.897750e+02
199 6.189700e+01 2.077520e+02
200 6.189700e+01 2.437070e+02
201 6.189700e+01 2.616850e+02
202 6.189700e+01 2.976400e+02
203 6.189700e+01 3.156170e+02
204 6.189700e+01 3.335950e+02
205 6.189700e+01 3.515720e+02
206 6.189700e+01 3.875270e+02
207 6.708600e+01 1.898900e+01
208 6.708600e+01 5.494400e+01
209 6.708600e+01 7.292100e+01
210 6.708600e+01 9.089900e+01
211 6.708600e+01 1.088760e+02
212 6.708600e+01 1.268540e+02
213 6.708600e+01 1.448310e+02
214 6.708600e+01 1.807860e+02
215 6.708600e+01 1.987640e+02
216 6.708600e+01 2.167410e+02
217 6.708600e+01 2.347190e+02
218 6.708600e+01 2.706740e+02
219 6.708600e+01 2.886510e+02
220 6.708600e+01 3.066290e+02
221 6.708600e+01 3.425840e+02
222 6.708600e+01 3.605610e+02
223 6.708600e+01 3.785390e+02
224 6.708600e+01 4.144940e+02
225 7.227600e+01 1.000000e+01
226 7.227600e+01 2.797700e+01
227 7.227600e+01 4.595500e+01
228 7.227600e+01 6.393200e+01
229 7.227600e+01 8.191000e+01
230 7.227600e+01 9.988700e+01
231 7.227600e+01 1.538200e+02
232 7.227600e+01 1.717970e+02
233 7.227600e+01 1.897750e+02
234 7.227600e+01 2.077520e+02
235 7.227600e+01 2.257300e+02
236 7.227600e+01 2.437070e+02
237 7.227600e+01 2.616850e+02
238 7.227600e+01 2.796620e+02
239 7.227600e+01 2.976400e+02
240 7.227600e+01 3.156170e+02
241 7.227600e+01 3.335950e+02
242 7.227600e+01 4.055050e+02
243 7.746600e+01 3.696600e+01
244 7.746600e+01 7.292100e+01
245 7.746600e+01 1.628090e+02
246 7.746600e+01 1.987640e+02
247 7.746600e+01 2.167410e+02
248 7.746600e+01 2.347190e+02
249 7.746600e+01 2.706740e+02
250 7.746600e+01 2.886510e+02
251 7.746600e+01 3.066290e+02
252 7.746600e+01 3.246060e+02
253 7.746600e+01 3.605610e+02
254 7.746600e+01 3.785390e+02
255 7.746600e+01 3.965160e+02
256 8.265500e+01 1.000000e+01
257 8.265500e+01 2.797700e+01
258 8.265500e+01 6.393200e+01
259 8.265500e+01 8.191000e+01
260 8.265500e+01 9.988700e+01
261 8.265500e+01 1.178650e+02
262 8.265500e+01 1.538200e+02
263 8.265500e+01 1.717970e+02
264 8.265500e+01 1.897750e+02
265 8.265500e+01 2.077520e+02
266 8.265500e+01 2.257300e+02
267 8.265500e+01 2.437070e+02
268 8.265500e+01 2.616850e+02
269 8.265500e+01 2.796620e+02
270 8.265500e+01 2.976400e+02
271 8.265500e+01 3.156170e+02
272 8.265500e+01 3.335950e+02
273 8.265500e+01 3.875270e+02
274 8.784500e+01 1.898900e+01
275 8.784500e+01 3.696600e+01
276 8.784500e+01 5.494400e+01
277 8.784500e+01 7.292100e+01
278 8.784500e+01 9.089900e+01
279 8.784500e+01 1.088760e+02
280 8.784500e+01 1.268540e+02
281 8.784500e+01 1.448310e+02
282 8.784500e+01 1.628090e+02
283 8.784500e+01 1.807860e+02
284 8.784500e+01 2.167410e+02
285 8.784500e+01 2.347190e+02
286 8.784500e+01 2.526960e+02
287 8.784500e+01 2.886510e+02
288 8.784500e+01 3.066290e+02
289 8.784500e+01 3.246060e+02
290 8.784500e+01 3.425840e+02
291 8.784500e+01 3.605610e+02
292 8.784500e+01 3.785390e+02
293 8.784500e+01 3.965160e+02
294 8.784500e+01 4.144940e+02
295 9.303400e+01 1.000000e+01
296 9.303400e+01 4.595500e+01
297 9.303400e+01 6.393200e+01
298 9.303400e+01 8.191000e+01
299 9.303400e+01 9.988700e+01
300 9.303400e+01 1.178650e+02
301 9.303400e+01 1.358420e+02
302 9.303400e+01 1.717970e+02
303 9.303400e+01 1.897750e+02
304 9.303400e+01 2.077520e+02
305 9.303400e+01 2.437070e+02
306 9.303400e+01 2.616850e+02
307 9.303400e+01 2.976400e+02
308 9.303400e+01 3.335950e+02
309 9.303400e+01 3.695500e+02
310 9.303400e+01 3.875270e+02
311 9.303400e+01 4.055050e+02
312 9.822400e+01 1.898900e+01
313 9.822400e+01 3.696600e+01
314 9.822400e+01 7.292100e+01
315 9.822400e+01 9.089900e+01
316 9.822400e+01 1.088760e+02
317 9.822400e+01 1.448310e+02
318 9.822400e+01 1.628090e+02
319 9.822400e+01 1.807860e+02
320 9.822400e+01 1.987640e+02
321 9.822400e+01 2.347190e+02
322 9.822400e+01 2.526960e+02
323 9.822400e+01 2.706740e+02
324 9.822400e+01 2.886510e+02
325 9.822400e+01 3.066290e+02
326 9.822400e+01 3.246060e+02
327 9.822400e+01 3.425840e+02
328 9.822400e+01 3.785390e+02
329 9.822400e+01 3.965160e+02
330 1.034140e+02 1.000000e+01
331 1.034140e+02 2.797700e+01
332 1.034140e+02 4.595500e+01
333 1.034140e+02 9.988700e+01
334 1.034140e+02 1.178650e+02
335 1.034140e+02 1.358420e+02
336 1.034140e+02 1.538200e+02
337 1.034140e+02 2.077520e+02
338 1.034140e+02 2.257300e+02
339 1.034140e+02 2.437070e+02
340 1.034140e+02 2.796620e+02
341 1.034140e+02 2.976400e+02
342 1.034140e+02 3.335950e+02
343 1.034140e+02 3.515720e+02
344 1.034140e+02 3.875270e+02
345 1.034140e+02 4.055050e+02
346 1.086030e+02 1.898900e+01
347 1.086030e+02 3.696600e+01
348 1.086030e+02 7.292100e+01
349 1.086030e+02 9.089900e+01
350 1.086030e+02 1.088760e+02
351 1.086030e+02 1.268540e+02
352 1.086030e+02 1.448310e+02
353 1.086030e+02 1.807860e+02
354 1.086030e+02 1.987640e+02
355 1.086030e+02 2.347190e+02
356 1.086030e+02 2.526960e+02
357 1.086030e+02 2.706740e+02
358 1.086030e+02 3.066290e+02
359 1.086030e+02 3.246060e+02
360 1.086030e+02 3.425840e+02
361 1.086030e+02 3.965160e+02
362 1.086030e+02 4.144940e+02
363 1.137930e+02 1.000000e+01
364 1.137930e+02 2.797700e+01
365 1.137930e+02 4.595500e+01
366 1.137930e+02 6.393200e+01
367 1.137930e+02 8.191000e+01
368 1.137930e+02 9.988700e+01
369 1.137930e+02 1.538200e+02
370 1.137930e+02 2.077520e+02
371 1.137930e+02 2.257300e+02
372 1.137930e+02 2.437070e+02
373 1.137930e+02 2.616850e+02
374 1.137930e+02 2.796620e+02
375 1.137930e+02 2.976400e+02
376 1.137930e+02 3.335950e+02
377 1.137930e+02 3.515720e+02
378 1.137930e+02 3.875270e+02
379 1.137930e+02 4.055050e+02
380 1.189830e+02 1.898900e+01
381 1.189830e+02 3.696600e+01
382 1.189830e+02 5.494400e+01
383 1.189830e+02 7.292100e+01
384 1.189830e+02 1.088760e+02
385 1.189830e+02 1.268540e+02
386 1.189830e+02 1.448310e+02
387 1.189830e+02 1.628090e+02
388 1.189830e+02 1.987640e+02
389 1.189830e+02 2.167410e+02
390 1.189830e+02 2.347190e+02
391 1.189830e+02 2.526960e+02
392 1.189830e+02 2.706740e+02
393 1.189830e+02 2.886510e+02
394 1.189830e+02 3.066290e+02
395 1.189830e+02 3.246060e+02
396 1.189830e+02 3.605610e+02
397 1.189830e+02 3.785390e+02
398 1.189830e+02 3.965160e+02
399 1.189830e+02 4.144940e+02
400 1.241720e+02 1.000000e+01
401 1.241720e+02 2.797700e+01
402 1.241720e+02 4.595500e+01
403 1.241720e+02 8.191000e+01
404 1.241720e+02 9.988700e+01
405 1.241720e+02 1.178650e+02
406 1.241720e+02 1.358420e+02
407 1.241720e+02 1.717970e+02
408 1.241720e+02 2.077520e+02
409 1.241720e+02 2.257300e+02
410 1.241720e+02 2.437070e+02
411 1.241720e+02 2.616850e+02
412 1.241720e+02 2.976400e+02
413 1.241720e+02 3.156170e+02
414 1.241720e+02 3.335950e+02
415 1.241720e+02 3.695500e+02
416 1.241720e+02 3.875270e+02
417 1.241720e+02 4.055050e+02
418 1.293620e+02 1.898900e+01
419 1.293620e+02 3.696600e+01
420 1.293620e+02 5.494400e+01
421 1.293620e+02 7.292100e+01
422 1.293620e+02 9.089900e+01
423 1.293620e+02 1.268540e+02
424 1.293620e+02 1.807860e+02
425 1.293620e+02 2.167410e+02
426 1.293620e+02 2.347190e+02
427 1.293620e+02 2.526960e+02
428 1.293620e+02 2.886510e+02
429 1.293620e+02 3.066290e+02
430 1.293620e+02 3.246060e+02
431 1.293620e+02 3.425840e+02
432 1.293620e+02 3.605610e+02
433 1.293620e+02 3.785390e+02
434 1.293620e+02 3.965160e+02
435 1.293620e+02 4.144940e+02
436 1.345520e+02 1.000000e+01
437 1.345520e+02 2.797700e+01
438 1.345520e+02 6.393200e+01
439 1.345520e+02 8.191000e+01
440 1.345520e+02 9.988700e+01
441 1.345520e+02 1.178650e+02
442 1.345520e+02 1.358420e+02
443 1.345520e+02 1.538200e+02
444 1.345520e+02 1.717970e+02
445 1.345520e+02 1.897750e+02
446 1.345520e+02 2.257300e+02
447 1.345520e+02 2.437070e+02
448 1.345520e+02 2.616850e+02
449 1.345520e+02 2.796620e+02
450 1.345520e+02 2.976400e+02
451 1.345520e+02 3.515720e+02
452 1.345520e+02 3.695500e+02
453 1.345520e+02 4.055050e+02
454 1.397410e+02 1.898900e+01
455 1.397410e+02 3.696600e+01
456 1.397410e+02 5.494400e+01
457 1.397410e+02 7.292100e+01
458 1.397410e+02 9.089900e+01
459 1.397410e+02 1.088760e+02
460 1.397410e+02 1.448310e+02
461 1.397410e+02 1.987640e+02
462 1.397410e+02 2.167410e+02
463 1.397410e+02 2.347190e+02
464 1.397410e+02 2.526960e+02
465 1.397410e+02 2.706740e+02
466 1.397410e+02 2.886510e+02
467 1.397410e+02 3.066290e+02
468 1.397410e+02 3.246060e+02
469 1.397410e+02 3.425840e+02
470 1.397410e+02 3.605610e+02
471 1.397410e+02 3.785390e+02
472 1.397410e+02 3.965160e+02
473 1.397410e+02 4.144940e+02
474 1.449310e+02 1.000000e+01
475 1.449310e+02 2.797700e+01
476 1.449310e+02 4.595500e+01
477 1.449310e+02 6.393200e+01
478 1.449310e+02 8.191000e+01
479 1.449310e+02 1.178650e+02
480 1.449310e+02 1.358420e+02
481 1.449310e+02 1.717970e+02
482 1.449310e+02 1.897750e+02
483 1.449310e+02 2.077520e+02
484 1.449310e+02 2.257300e+02
485 1.449310e+02 2.437070e+02
486 1.449310e+02 2.976400e+02
487 1.449310e+02 3.156170e+02
488 1.449310e+02 3.335950e+02
489 1.449310e+02 3.515720e+02
490 1.449310e+02 3.695500e+02
491 1.449310e+02 3.875270e+02
492 1.449310e+02 4.055050e+02
493 1.501210e+02 1.898900e+01
494 1.501210e+02 3.696600e+01
495 1.501210e+02 5.494400e+01
496 1.501210e+02 7.292100e+01
497 1.501210e+02 9.089900e+01
498 1.501210e+02 1.088760e+02
499 1.501210e+02 1.268540e+02
500 1.501210e+02 1.448310e+02
501 1.501210e+02 1.628090e+02
502 1.501210e+02 1.807860e+02
503 1.501210e+02 1.987640e+02
504 1.501210e+02 2.167410e+02
505 1.501210e+02 2.706740e+02
506 1.501210e+02 2.886510e+02
507 1.501210e+02 3.066290e+02
508 1.501210e+02 3.246060e+02
509 1.501210e+02 3.785390e+02
510 1.501210e+02 3.965160e+02
511 1.553100e+02 1.000000e+01
512 1.553100e+02 2.797700e+01
513 1.553100e+02 6.393200e+01
514 1.553100e+02 8.191000e+01
515 1.553100e+02 9.988700e+01
516 1.553100e+02 1.538200e+02
517 1.553100e+02 1.717970e+02
518 1.553100e+02 1.897750e+02
519 1.553100e+02 2.257300e+02
520 1.553100e+02 2.437070e+02
521 1.553100e+02 2.616850e+02
522 1.553100e+02 2.796620e+02
523 1.553100e+02 2.976400e+02
524 1.553100e+02 3.156170e+02
525 1.553100e+02 3.335950e+02
526 1.553100e+02 3.695500e+02
527 1.553100e+02 3.875270e+02
528 1.605000e+02 1.898900e+01
529 1.605000e+02 3.696600e+01
530 1.605000e+02 7.292100e+01
531 1.605000e+02 1.088760e+02
532 1.605000e+02 1.448310e+02
533 1.605000e+02 1.628090e+02
534 1.605000e+02 1.807860e+02
535 1.605000e+02 2.167410e+02
536 1.605000e+02 2.347190e+02
537 1.605000e+02 2.706740e+02
538 1.605000e+02 3.066290e+02
539 1.605000e+02 3.605610e+02
540 1.605000e+02 3.785390e+02
541 1.605000e+02 3.965160e+02
542 1.656900e+02 1.000000e+01
543 1.656900e+02 2.797700e+01
544 1.656900e+02 8.191000e+01
545 1.656900e+02 9.988700e+01
546 1.656900e+02 1.178650e+02
547 1.656900e+02 1.358420e+02
548 1.656900e+02 1.538200e+02
549 1.656900e+02 1.717970e+02
550 1.656900e+02 1.897750e+02
551 1.656900e+02 2.077520e+02
552 1.656900e+02 2.257300e+02
553 1.656900e+02 2.616850e+02
554 1.656900e+02 2.796620e+02
555 1.656900e+02 2.976400e+02
556 1.656900e+02 3.156170e+02
557 1.656900e+02 3.335950e+02
558 1.656900e+02 3.515720e+02
559 1.656900e+02 3.695500e+02
560 1.656900e+02 3.875270e+02
561 1.656900e+02 4.055050e+02
562 1.708790e+02 1.898900e+01
563 1.708790e+02 3.696600e+01
564 1.708790e+02 5.494400e+01
565 1.708790e+02 9.089900e+01
566 1.708790e+02 1.088760e+02
567 1.708790e+02 1.268540e+02
568 1.708790e+02 1.448310e+02
569 1.708790e+02 1.628090e+02
570 1.708790e+02 1.807860e+02
571 1.708790e+02 1.987640e+02
572 1.708790e+02 2.167410e+02
573 1.708790e+02 2.526960e+02
574 1.708790e+02 2.706740e+02
575 1.708790e+02 3.066290e+02
576 1.708790e+02 3.785390e+02
577 1.708790e+02 4.144940e+02
578 1.760690e+02 1.000000e+01
579 1.760690e+02 2.797700e+01
580 1.760690e+02 4.595500e+01
581 1.760690e+02 6.393200e+01
582 1.760690e+02 8.191000e+01
583 1.760690e+02 9.988700e+01
584 1.760690e+02 1.178650e+02
585 1.760690e+02 1.358420e+02
586 1.760690e+02 1.717970e+02
587 1.760690e+02 1.897750e+02
588 1.760690e+02 2.077520e+02
589 1.760690e+02 2.257300e+02
590 1.760690e+02 2.616850e+02
591 1.760690e+02 2.976400e+02
592 1.760690e+02 3.335950e+02
593 1.760690e+02 4.055050e+02
594 1.812590e+02 1.898900e+01
595 1.812590e+02 3.696600e+01
596 1.812590e+02 7.292100e+01
597 1.812590e+02 9.089900e+01
598 1.812590e+02 1.448310e+02
599 1.812590e+02 1.628090e+02
600 1.812590e+02 1.807860e+02
601 1.812590e+02 1.987640e+02
602 1.812590e+02 2.167410e+02
603 1.812590e+02 2.347190e+02
604 1.812590e+02 2.526960e+02
605 1.812590e+02 2.886510e+02
606 1.812590e+02 3.066290e+02
607 1.812590e+02 3.246060e+02
608 1.812590e+02 3.425840e+02
609 1.812590e+02 3.965160e+02
610 1.864480e+02 1.000000e+01
611 1.864480e+02 4.595500e+01
612 1.864480e+02 8.191000e+01
613 1.864480e+02 9.988700e+01
614 1.864480e+02 1.178650e+02
615 1.864480e+02 1.358420e+02
616 1.864480e+02 1.538200e+02
617 1.864480e+02 1.717970e+02
618 1.864480e+02 1.897750e+02
619 1.864480e+02 2.437070e+02
620 1.864480e+02 2.616850e+02
621 1.864480e+02 2.796620e+02
622 1.864480e+02 3.156170e+02
623 1.864480e+02 3.515720e+02
624 1.864480e+02 3.695500e+02
625 1.864480e+02 3.875270e+02
626 1.864480e+02 4.055050e+02
627 1.916380e+02 1.898900e+01
628 1.916380e+02 3.696600e+01
629 1.916380e+02 7.292100e+01
630 1.916380e+02 1.088760e+02
631 1.916380e+02 1.268540e+02
632 1.916380e+02 1.628090e+02
633 1.916380e+02 1.987640e+02
634 1.916380e+02 2.167410e+02
635 1.916380e+02 2.526960e+02
636 1.916380e+02 2.706740e+02
637 1.916380e+02 3.066290e+02
638 1.916380e+02 3.246060e+02
639 1.916380e+02 3.425840e+02
640 1.916380e+02 3.605610e+02
641 1.916380e+02 3.785390e+02
642 1.916380e+02 4.144940e+02
643 1.968280e+02 1.000000e+01
644 1.968280e+02 2.797700e+01
645 1.968280e+02 4.595500e+01
646 1.968280e+02 6.393200e+01
647 1.968280e+02 9.988700e+01
648 1.968280e+02 1.178650e+02
649 1.968280e+02 1.358420e+02
650 1.968280e+02 1.538200e+02
651 1.968280e+02 1.717970e+02
652 1.968280e+02 2.437070e+02
653 1.968280e+02 2.616850e+02
654 1.968280e+02 2.976400e+02
655 1.968280e+02 3.335950e+02
656 1.968280e+02 3.515720e+02
657 1.968280e+02 3.875270e+02
658 1.968280e+02 4.055050e+02
659 2.020170e+02 1.898900e+01
660 2.020170e+02 7.292100e+01
661 2.020170e+02 9.089900e+01
662 2.020170e+02 1.268540e+02
663 2.020170e+02 1.448310e+02
664 2.020170e+02 1.628090e+02
665 2.020170e+02 1.807860e+02
666 2.020170e+02 1.987640e+02
667 2.020170e+02 2.347190e+02
668 2.020170e+02 2.526960e+02
669 2.020170e+02 2.706740e+02
670 2.020170e+02 2.886510e+02
671 2.020170e+02 3.066290e+02
672 2.020170e+02 3.425840e+02
673 2.020170e+02 3.605610e+02
674 2.020170e+02 3.965160e+02
675 2.020170e+02 4.144940e+02
676 2.072070e+02 2.797700e+01
677 2.072070e+02 4.595500e+01
678 2.072070e+02 6.393200e+01
679 2.072070e+02 8.191000e+01
680 2.072070e+02 9.988700e+01
681 2.072070e+02 1.358420e+02
682 2.072070e+02 1.538200e+02
683 2.072070e+02 1.717970e+02
684 2.072070e+02 1.897750e+02
685 2.072070e+02 2.077520e+02
686 2.072070e+02 2.257300e+02
687 2.072070e+02 2.616850e+02
688 2.072070e+02 2.796620e+02
689 2.072070e+02 2.976400e+02
690 2.072070e+02 3.156170e+02
691 2.072070e+02 3.515720e+02
692 2.072070e+02 3.695500e+02
693 2.123970e+02 1.898900e+01
694 2.123970e+02 5.494400e+01
695 2.123970e+02 7.292100e+01
696 2.123970e+02 9.089900e+01
697 2.123970e+02 1.088760e+02
698 2.123970e+02 1.268540e+02
699 2.123970e+02 2.167410e+02
700 2.123970e+02 2.347190e+02
701 2.123970e+02 2.526960e+02
702 2.123970e+02 2.706740e+02
703 2.123970e+02 2.886510e+02
704 2.123970e+02 3.425840e+02
705 2.123970e+02 3.965160e+02
706 2.123970e+02 4.144940e+02
707 2.175860e+02 1.000000e+01
708 2.175860e+02 2.797700e+01
709 2.175860e+02 6.393200e+01
710 2.175860e+02 9.988700e+01
711 2.175860e+02 1.178650e+02
712 2.175860e+02 1.538200e+02
713 2.175860e+02 1.717970e+02
714 2.175860e+02 1.897750e+02
715 2.175860e+02 2.257300e+02
716 2.175860e+02 2.437070e+02
717 2.175860e+02 2.616850e+02
718 2.175860e+02 2.796620e+02
719 2.175860e+02 2.976400e+02
720 2.175860e+02 3.156170e+02
721 2.175860e+02 3.515720e+02
722 2.175860e+02 3.695500e+02
723 2.175860e+02 3.875270e+02
724 2.175860e+02 4.055050e+02
725 2.227760e+02 1.898900e+01
726 2.227760e+02 3.696600e+01
727 2.227760e+02 7.292100e+01
728 2.227760e+02 9.089900e+01
729 2.227760e+02 1.088760e+02
730 2.227760e+02 1.628090e+02
731 2.227760e+02 1.807860e+02
732 2.227760e+02 1.987640e+02
733 2.227760e+02 2.167410e+02
734 2.227760e+02 2.347190e+02
735 2.227760e+02 2.526960e+02
736 2.227760e+02 2.886510e+02
737 2.227760e+02 3.066290e+02
738 2.227760e+02 3.246060e+02
739 2.227760e+02 3.605610e+02
740 2.227760e+02 3.785390e+02
741 2.227760e+02 3.965160e+02
742 2.227760e+02 4.144940e+02
743 2.279660e+02 1.000000e+01
744 2.279660e+02 2.797700e+01
745 2.279660e+02 4.595500e+01
746 2.279660e+02 8.191000e+01
747 2.279660e+02 1.178650e+02
748 2.279660e+02 1.358420e+02
749 2.279660e+02 1.538200e+02
750 2.279660e+02 1.717970e+02
751 2.279660e+02 1.897750e+02
752 2.279660e+02 2.077520e+02
753 2.279660e+02 2.257300e+02
754 2.279660e+02 2.616850e+02
755 2.279660e+02 2.796620e+02
756 2.279660e+02 2.976400e+02
757 2.279660e+02 3.335950e+02
758 2.279660e+02 3.695500e+02
759 2.279660e+02 3.875270e+02
760 2.279660e+02 4.055050e+02
761 2.331550e+02 1.898900e+01
762 2.331550e+02 5.494400e+01
763 2.331550e+02 7.292100e+01
764 2.331550e+02 9.089900e+01
765 2.331550e+02 1.268540e+02
766 2.331550e+02 1.448310e+02
767 2.331550e+02 1.628090e+02
768 2.331550e+02 1.987640e+02
769 2.331550e+02 2.167410e+02
770 2.331550e+02 2.347190e+02
771 2.331550e+02 2.526960e+02
772 2.331550e+02 2.706740e+02
773 2.331550e+02 3.066290e+02
774 2.331550e+02 3.246060e+02
775 2.331550e+02 3.425840e+02
776 2.331550e+02 3.605610e+02
777 2.331550e+02 3.965160e+02
778 2.331550e+02 4.144940e+02
779 2.383450e+02 1.000000e+01
780 2.383450e+02 4.595500e+01
781 2.383450e+02 6.393200e+01
782 2.383450e+02 8.191000e+01
783 2.383450e+02 9.988700e+01
784 2.383450e+02 1.178650e+02
785 2.383450e+02 1.358420e+02
786 2.383450e+02 1.717970e+02
787 2.383450e+02 1.897750e+02
788 2.383450e+02 2.077520e+02
789 2.383450e+02 2.257300e+02
790 2.383450e+02 2.976400e+02
791 2.383450e+02 4.055050e+02
792 2.435340e+02 1.898900e+01
793 2.435340e+02 3.696600e+01
794 2.435340e+02 5.494400e+01
795 2.435340e+02 7.292100e+01
796 2.435340e+02 9.089900e+01
797 2.435340e+02 1.088760e+02
798 2.435340e+02 1.628090e+02
799 2.435340e+02 1.807860e+02
800 2.435340e+02 1.987640e+02
801 2.435340e+02 2.167410e+02
802 2.435340e+02 2.706740e+02
803 2.435340e+02 2.886510e+02
804 2.435340e+02 3.425840e+02
805 2.435340e+02 3.965160e+02
806 2.435340e+02 4.144940e+02
807 2.487240e+02 1.000000e+01
808 2.487240e+02 2.797700e+01
809 2.487240e+02 8.191000e+01
810 2.487240e+02 9.988700e+01
811 2.487240e+02 1.358420e+02
812 2.487240e+02 1.717970e+02
813 2.487240e+02 1.897750e+02
814 2.487240e+02 2.077520e+02
815 2.487240e+02 2.257300e+02
816 2.487240e+02 2.437070e+02
817 2.487240e+02 2.616850e+02
818 2.487240e+02 2.796620e+02
819 2.487240e+02 2.976400e+02
820 2.487240e+02 3.156170e+02
821 2.487240e+02 3.335950e+02
822 2.487240e+02 3.695500e+02
823 2.539140e+02 1.898900e+01
824 2.539140e+02 3.696600e+01
825 2.539140e+02 7.292100e+01
826 2.539140e+02 9.089900e+01
827 2.539140e+02 1.088760e+02
828 2.539140e+02 1.268540e+02
829 2.539140e+02 1.448310e+02
830 2.539140e+02 1.628090e+02
831 2.539140e+02 1.807860e+02
832 2.539140e+02 1.987640e+02
833 2.539140e+02 2.167410e+02
834 2.539140e+02 2.347190e+02
835 2.539140e+02 2.526960e+02
836 2.539140e+02 2.706740e+02
837 2.539140e+02 2.886510e+02
838 2.539140e+02 3.066290e+02
839 2.539140e+02 3.246060e+02
840 2.539140e+02 3.425840e+02
841 2.539140e+02 3.605610e+02
842 2.539140e+02 3.965160e+02
843 2.539140e+02 4.144940e+02
844 2.591030e+02 1.000000e+01
845 2.591030e+02 2.797700e+01
846 2.591030e+02 4.595500e+01
847 2.591030e+02 6.393200e+01
848 2.591030e+02 8.191000e+01
849 2.591030e+02 1.178650e+02
850 2.591030e+02 1.358420e+02
851 2.591030e+02 1.538200e+02
852 2.591030e+02 1.717970e+02
853 2.591030e+02 1.897750e+02
854 2.591030e+02 2.257300e+02
855 2.591030e+02 2.437070e+02
856 2.591030e+02 2.976400e+02
857 2.591030e+02 3.156170e+02
858 2.591030e+02 3.515720e+02
859 2.591030e+02 3.695500e+02
860 2.591030e+02 3.875270e+02
861 2.591030e+02 4.055050e+02
862 2.642930e+02 1.898900e+01
863 2.642930e+02 3.696600e+01
864 2.642930e+02 9.089900e+01
865 2.642930e+02 1.088760e+02
866 2.642930e+02 1.268540e+02
867 2.642930e+02 1.448310e+02
868 2.642930e+02 1.628090e+02
869 2.642930e+02 1.987640e+02
870 2.642930e+02 2.347190e+02
871 2.642930e+02 2.526960e+02
872 2.642930e+02 2.706740e+02
873 2.642930e+02 2.886510e+02
874 2.642930e+02 3.066290e+02
875 2.642930e+02 3.246060e+02
876 2.642930e+02 3.605610e+02
877 2.642930e+02 3.785390e+02
878 2.642930e+02 3.965160e+02
879 2.694830e+02 1.000000e+01
880 2.694830e+02 2.797700e+01
881 2.694830e+02 4.595500e+01
882 2.694830e+02 6.393200e+01
883 2.694830e+02 9.988700e+01
884 2.694830e+02 1.358420e+02
885 2.694830e+02 1.538200e+02
886 2.694830e+02 1.717970e+02
887 2.694830e+02 2.257300e+02
888 2.694830e+02 3.335950e+02
889 2.694830e+02 3.695500e+02
890 2.694830e+02 3.875270e+02
891 2.694830e+02 4.055050e+02
892 2.746720e+02 1.898900e+01
893 2.746720e+02 3.696600e+01
894 2.746720e+02 7.292100e+01
895 2.746720e+02 1.088760e+02
896 2.746720e+02 1.448310e+02
897 2.746720e+02 1.628090e+02
898 2.746720e+02 1.807860e+02
899 2.746720e+02 2.167410e+02
900 2.746720e+02 2.347190e+02
901 2.746720e+02 2.706740e+02
902 2.746720e+02 2.886510e+02
903 2.746720e+02 3.066290e+02
904 2.746720e+02 3.246060e+02
905 2.746720e+02 3.425840e+02
906 2.746720e+02 4.144940e+02
907 2.798620e+02 1.000000e+01
908 2.798620e+02 2.797700e+01
909 2.798620e+02 4.595500e+01
910 2.798620e+02 6.393200e+01
911 2.798620e+02 8.191000e+01
912 2.798620e+02 9.988700e+01
913 2.798620e+02 1.178650e+02
914 2.798620e+02 1.358420e+02
915 2.798620e+02 1.538200e+02
916 2.798620e+02 1.717970e+02
917 2.798620e+02 1.897750e+02
918 2.798620e+02 2.077520e+02
919 2.798620e+02 2.257300e+02
920 2.798620e+02 2.796620e+02
921 2.798620e+02 2.976400e+02
922 2.798620e+02 3.156170e+02
923 2.798620e+02 3.515720e+02
924 2.798620e+02 3.695500e+02
925 2.798620e+02 3.875270e+02
926 2.798620e+02 4.055050e+02
927 2.850520e+02 1.898900e+01
928 2.850520e+02 3.696600e+01
929 2.850520e+02 5.494400e+01
930 2.850520e+02 7.292100e+01
931 2.850520e+02 9.089900e+01
932 2.850520e+02 1.268540e+02
933 2.850520e+02 1.448310e+02
934 2.850520e+02 1.807860e+02
935 2.850520e+02 1.987640e+02
936 2.850520e+02 2.167410e+02
937 2.850520e+02 2.347190e+02
938 2.850520e+02 2.526960e+02
939 2.850520e+02 2.706740e+02
940 2.850520e+02 3.066290e+02
941 2.850520e+02 3.246060e+02
942 2.850520e+02 3.425840e+02
943 2.850520e+02 3.605610e+02
944 2.850520e+02 3.785390e+02
945 2.850520e+02 3.965160e+02
946 2.850520e+02 4.144940e+02
947 2.902410e+02 1.000000e+01
948 2.902410e+02 2.797700e+01
949 2.902410e+02 6.393200e+01
950 2.902410e+02 9.988700e+01
951 2.902410e+02 1.178650e+02
952 2.902410e+02 1.358420e+02
953 2.902410e+02 1.538200e+02
954 2.902410e+02 1.717970e+02
955 2.902410e+02 1.897750e+02
956 2.902410e+02 2.077520e+02
957 2.902410e+02 2.257300e+02
958 2.902410e+02 2.437070e+02
959 2.902410e+02 2.976400e+02
960 2.902410e+02 3.156170e+02
961 2.902410e+02 3.335950e+02
962 2.902410e+02 3.515720e+02
963 2.902410e+02 4.055050e+02
964 2.954310e+02 1.898900e+01
965 2.954310e+02 3.696600e+01
966 2.954310e+02 5.494400e+01
967 2.954310e+02 9.089900e+01
968 2.954310e+02 1.268540e+02
969 2.954310e+02 1.448310e+02
970 2.954310e+02 1.628090e+02
971 2.954310e+02 1.807860e+02
972 2.954310e+02 1.987640e+02
973 2.954310e+02 2.167410e+02
974 2.954310e+02 2.347190e+02
975 2.954310e+02 2.886510e+02
976 2.954310e+02 3.066290e+02
977 2.954310e+02 3.246060e+02
978 2.954310e+02 3.425840e+02
979 2.954310e+02 3.785390e+02
980 2.954310e+02 3.965160e+02
981 2.954310e+02 4.144940e+02
982 3.006210e+02 1.000000e+01
983 3.006210e+02 2.797700e+01
984 3.006210e+02 4.595500e+01
985 3.006210e+02 6.393200e+01
986 3.006210e+02 8.191000e+01
987 3.006210e+02 9.988700e+01
988 3.006210e+02 1.178650e+02
989 3.006210e+02 1.538200e+02
990 3.006210e+02 1.897750e+02
991 3.006210e+02 2.077520e+02
992 3.006210e+02 2.257300e+02
993 3.006210e+02 2.437070e+02
994 3.006210e+02 2.616850e+02
995 3.006210e+02 2.796620e+02
996 3.006210e+02 2.976400e+02
997 3.006210e+02 3.156170e+02
998 3.006210e+02 3.515720e+02
999 3.006210e+02 3.695500e+02
1000 3.006210e+02 3.875270e+02
EOF
